NAME : tsp_36_sol.txt
COMMENT : OR-Tools Guided Local Search
TYPE : TOUR
DIMENSION : 50
COST : 5840
STATUS : ROUTING_SUCCESS
GAP : 0.00% (Reference Solution)
TOUR_SECTION
1
7
23
11
48
15
2
36
40
4
22
45
27
39
41
5
31
17
19
13
35
6
34
38
44
24
20
8
33
18
43
47
46
3
21
49
30
9
42
16
50
28
26
29
12
37
10
14
32
25
-1
